conference_sessions = 40;
slots = 7;
length_of_paper_range = 4;
NbrGrps = 20;

papers_range = [3, 4, 5, 6];
np = [14, 23, 12, 9, 9, 6, 10, 4, 10, 7, 6, 5, 3, 5, 6, 4, 3, 12, 7, 16, 4, 5, 14, 11, 4, 3, 10, 6, 6, 4, 13, 3, 4, 9, 5, 4, 11, 6, 6, 8];
npMax = [4, 6, 6, 4, 4, 5, 3];
max_parallel_sessions = 11;